2556, 0, 0, 71, 3
2557, 0, 1, 93, 4
2558, 0, 2, 50, 0
2559, 0, 3, 51, 2
2560, 0, 4, 44, 1
2561, 1, 0, 72, 0
2562, 1, 1, 51, 2
2563, 1, 2, 73, 1
2564, 1, 3, 30, 3
2565, 1, 4, 44, 4
2566, 2, 0, 41, 4
2567, 2, 1, 89, 3
2568, 2, 2, 80, 1
2569, 2, 3, 47, 0
2570, 2, 4, 74, 2
2571, 3, 0, 61, 3
2572, 3, 1, 55, 4
2573, 3, 2, 45, 2
2574, 3, 3, 87, 0
2575, 3, 4, 83, 1